41
2
97, 9, 7, 68, 50, 57, 62, 27, 79, 79, 69, 95, 81, 93, 46, 69, 17, 74, 11, 60
18, 9, 53, 97, 80, 28, 69, 85, 62, 99, 30, 33, 65, 100, 10, 85, 21, 35, 24, 14
2, 2, 1, 1, 2, 2, 1, 1, 2, 2, 1, 1, 2, 2, 2, 2, 2, 1, 2, 2